[TITLE]
DMA Chapinero (Bogota) -- red ILUSTRATIVA, no un levantamiento real de la EAAB.
Georreferenciada sobre coordenadas reales de la localidad de Chapinero
(lat ~4.645-4.657, lon ~-74.062 a -74.046, elevacion base ~2643 msnm).
Parametros de tuberia/caudal inspirados en ordenes de magnitud tipicos de
un DMA colombiano (ver docs/07-track-b-alcance-funcional.md, caso Cartago,
UTP/Mendeley Data), no medidos en campo.

[JUNCTIONS]
;ID              Elev        Demand      Pattern
 J1               2645        0.5                  ;
 J2               2635        1.2                  ;
 J3               2625        1.5                  ;
 J4               2615        1.8                  ;
 J5               2620        1.3                  ;
 J6               2630        0.9                  ;

[RESERVOIRS]
;ID              Head        Pattern
 R1               2680                             ;

[TANKS]

[PIPES]
;ID              Node1           Node2           Length      Diameter    Roughness   MinorLoss   Status
 P1               R1              J1              800         250         140         0           Open    ;
 P2               J1              J2              550         150         140         0           Open    ;
 P3               J2              J3              550         150         140         0           Open    ;
 P4               J3              J4              400         150         140         0           Open    ;
 P5               J4              J5              550         150         140         0           Open    ;
 P6               J5              J6              600         150         140         0           Open    ;
 P7               J6              J1              550         150         140         0           Open    ;
 P8               J2              J5              650         100         140         0           Open    ;

[VALVES]

[TAGS]

[DEMANDS]

[STATUS]

[PATTERNS]
;ID              Multipliers
 1                1.0

[CURVES]

[CONTROLS]

[RULES]

[ENERGY]
 Global Efficiency  75
 Global Price        0

[EMITTERS]

[QUALITY]

[SOURCES]

[REACTIONS]

[MIXING]

[TIMES]
 Duration            24:00
 Hydraulic Timestep  1:00
 Quality Timestep    0:05
 Pattern Timestep    1:00
 Pattern Start       0:00
 Report Timestep     1:00
 Report Start        0:00
 Start ClockTime     0:00
 Statistic           None

[REPORT]
 Status              No
 Summary             No
 Page                0

[OPTIONS]
 Units               LPS
 Headloss            H-W
 Specific Gravity    1.0
 Viscosity           1.0
 Trials              40
 Accuracy            0.001
 CHECKFREQ           2
 MAXCHECK            10
 DAMPLIMIT           0
 Unbalanced          Continue 10
 Pattern             1
 Demand Multiplier   1.0
 Emitter Exponent    0.5
 Quality             None mg/L
 Diffusivity         1.0
 Tolerance           0.01

[COORDINATES]
;Node            X-Coord (lon)   Y-Coord (lat)
 R1               -74.0464        4.6572
 J1               -74.0530        4.6540
 J2               -74.0570        4.6510
 J3               -74.0610        4.6480
 J4               -74.0590        4.6450
 J5               -74.0540        4.6460
 J6               -74.0500        4.6500

[VERTICES]

[LABELS]

[BACKDROP]

[END]
