[TITLE]
DMA Tres Cruces - San Fernando (Cali) -- red ILUSTRATIVA, no un levantamiento
real de EMCALI. Georreferenciada sobre coordenadas reales de Cali (tanque
elevado hacia el Cerro de las Tres Cruces, lat ~3.4673/lon ~-76.5469, bajando
hacia el centro/San Fernando, lat ~3.44-3.46, lon ~-76.53 a -76.547,
elevacion base ~995 msnm). Parametros de tuberia/caudal inspirados en
ordenes de magnitud tipicos de un DMA colombiano (ver
docs/07-track-b-alcance-funcional.md, caso Cartago, UTP/Mendeley Data), no
medidos en campo.

[JUNCTIONS]
;ID              Elev        Demand      Pattern
 J1               1015        0.6                  ;
 J2               1005        1.4                  ;
 J3               998         1.7                  ;
 J4               995         1.9                  ;
 J5               1000        1.4                  ;
 J6               1008        1.0                  ;

[RESERVOIRS]
;ID              Head        Pattern
 R1               1030                             ;

[TANKS]

[PIPES]
;ID              Node1           Node2           Length      Diameter    Roughness   MinorLoss   Status
 P1               R1              J1              900         250         140         0           Open    ;
 P2               J1              J2              700         150         140         0           Open    ;
 P3               J2              J3              700         150         140         0           Open    ;
 P4               J3              J4              600         150         140         0           Open    ;
 P5               J4              J5              650         150         140         0           Open    ;
 P6               J5              J6              700         150         140         0           Open    ;
 P7               J6              J1              650         150         140         0           Open    ;
 P8               J2              J5              850         100         140         0           Open    ;

[VALVES]

[TAGS]

[DEMANDS]

[STATUS]

[PATTERNS]
;ID              Multipliers
 1                1.0

[CURVES]

[CONTROLS]

[RULES]

[ENERGY]
 Global Efficiency  75
 Global Price        0

[EMITTERS]

[QUALITY]

[SOURCES]

[REACTIONS]

[MIXING]

[TIMES]
 Duration            24:00
 Hydraulic Timestep  1:00
 Quality Timestep    0:05
 Pattern Timestep    1:00
 Pattern Start       0:00
 Report Timestep     1:00
 Report Start        0:00
 Start ClockTime     0:00
 Statistic           None

[REPORT]
 Status              No
 Summary             No
 Page                0

[OPTIONS]
 Units               LPS
 Headloss            H-W
 Specific Gravity    1.0
 Viscosity           1.0
 Trials              40
 Accuracy            0.001
 CHECKFREQ           2
 MAXCHECK            10
 DAMPLIMIT           0
 Unbalanced          Continue 10
 Pattern             1
 Demand Multiplier   1.0
 Emitter Exponent    0.5
 Quality             None mg/L
 Diffusivity         1.0
 Tolerance           0.01

[COORDINATES]
;Node            X-Coord (lon)   Y-Coord (lat)
 R1               -76.5469        3.4673
 J1               -76.5430        3.4600
 J2               -76.5390        3.4550
 J3               -76.5350        3.4500
 J4               -76.5390        3.4460
 J5               -76.5440        3.4490
 J6               -76.5460        3.4550

[VERTICES]

[LABELS]

[BACKDROP]

[END]
