[TITLE]
Red rural de agua potable -- zona rural al noreste de Gualaceo, Azuay, Ecuador.
Red ILUSTRATIVA para la demo de juntas (tenant jaas001), no un levantamiento
real de ninguna junta. Dos sectores: ALTO, alimentado desde el reservorio de
40 m3 (cota ~2590 msnm), y BAJO, alimentado desde un tanque rompepresion
(cota ~2480 msnm), como se construyen los sistemas por gravedad de la sierra
ecuatoriana. Tuberia PVC de 32 a 63 mm. Demandas de una junta de ~96
conexiones (0,5-0,7 m3/dia por conexion) con patron rural de picos a la
manana y al anochecer. Coordenadas aproximadas (lon/lat), coherentes con los
componentes del gemelo digital del mismo tenant.

[JUNCTIONS]
;ID              Elev        Demand      Pattern
 VA               2585        0                       ;Valvula de sectorizacion sector alto
 A1               2562        0.08        DIA         ;
 A2               2555        0.10        DIA         ;
 A3               2550        0.10        DIA         ;
 A4               2545        0.08        DIA         ;
 B1               2465        0.07        DIA         ;
 B2               2452        0.09        DIA         ;
 B3               2443        0.09        DIA         ;
 B4               2436        0.06        DIA         ;

[RESERVOIRS]
;ID              Head        Pattern
 RES              2593                                ;Reservorio de 40 m3 de la comunidad
 RP               2483                                ;Tanque rompepresion sector bajo

[TANKS]

[PIPES]
;ID              Node1           Node2           Length      Diameter    Roughness   MinorLoss   Status
 P1               RES             VA              80          63          150         0           Open    ;
 P2               VA              A1              150         63          150         0           Open    ;
 P3               A1              A2              160         50          150         0           Open    ;
 P4               A2              A3              150         50          150         0           Open    ;
 P5               A3              A4              120         40          150         0           Open    ;
 P6               A4              A2              140         32          150         0           Open    ;
 P7               RP              B1              130         50          150         0           Open    ;
 P8               B1              B2              170         50          150         0           Open    ;
 P9               B2              B3              150         40          150         0           Open    ;
 P10              B3              B4              110         32          150         0           Open    ;
 P11              B4              B1              190         32          150         0           Open    ;

[PUMPS]

[VALVES]

[TAGS]

[DEMANDS]

[STATUS]

[PATTERNS]
;ID              Multipliers
;Patron rural: valle de madrugada, pico 6-8 h (cocina, aseo, ordeno) y 18-20 h.
 DIA              0.35        0.30        0.30        0.30        0.45        1.10
 DIA              2.10        2.30        1.60        1.10        0.90        1.00
 DIA              1.20        1.00        0.80        0.80        0.90        1.30
 DIA              1.90        2.00        1.40        0.90        0.60        0.40

[CURVES]

[CONTROLS]

[RULES]

[ENERGY]
 Global Efficiency  75
 Global Price        0

[EMITTERS]

[QUALITY]

[SOURCES]

[REACTIONS]

[MIXING]

[TIMES]
 Duration            24:00
 Hydraulic Timestep  1:00
 Quality Timestep    0:05
 Pattern Timestep    1:00
 Pattern Start       0:00
 Report Timestep     1:00
 Report Start        0:00
 Start ClockTime     0:00
 Statistic           None

[REPORT]
 Status              No
 Summary             No
 Page                0

[OPTIONS]
 Units               LPS
 Headloss            H-W
 Specific Gravity    1.0
 Viscosity           1.0
 Trials              40
 Accuracy            0.001
 CHECKFREQ           2
 MAXCHECK            10
 DAMPLIMIT           0
 Unbalanced          Continue 10
 Pattern             DIA
 Demand Multiplier   1.0
 Emitter Exponent    0.5
 Quality             None mg/L
 Diffusivity         1.0
 Tolerance           0.01

[COORDINATES]
;Node            X-Coord (lon)   Y-Coord (lat)
 RES              -78.7615        -2.8805
 VA               -78.7621        -2.8808
 A1               -78.7628        -2.8812
 A2               -78.7640        -2.8820
 A3               -78.7652        -2.8826
 A4               -78.7645        -2.8834
 RP               -78.7660        -2.8842
 B1               -78.7668        -2.8850
 B2               -78.7680        -2.8860
 B3               -78.7692        -2.8866
 B4               -78.7684        -2.8874

[VERTICES]

[LABELS]

[BACKDROP]

[END]
